SCIP Status        : solving was interrupted [time limit reached]
Total Time         :    3600.03
  solving          :    3600.00
  presolving       :       0.06 (included in solving)
  reading          :       0.03
  copying          :       0.04 (8 #copies) (minimal 0.00, maximal 0.01, average 0.01)
Original Problem   :
  Problem name     : benchmark/block2_45_10_9_11.design
  Variables        : 1108 (45 binary, 0 integer, 0 implicit integer, 1063 continuous)
  Constraints      : 1524 initial, 1524 maximal
  Objective        : minimize, 1 non-zeros (abs.min = 1, abs.max = 1)
Presolved Problem  :
  Problem name     : t_benchmark/block2_45_10_9_11.design
  Variables        : 1605 (45 binary, 0 integer, 0 implicit integer, 1560 continuous)
  Constraints      : 1524 initial, 1531 maximal
  Objective        : minimize, 1 non-zeros (abs.min = 1, abs.max = 1)
  Nonzeros         : 5168 constraint, 0 clique table
Presolvers         :   ExecTime  SetupTime  Calls  FixedVars   AggrVars   ChgTypes  ChgBounds   AddHoles    DelCons    AddCons   ChgSides   ChgCoefs
  boundshift       :       0.00       0.00      0          0          0          0          0          0          0          0          0          0
  convertinttobin  :       0.00       0.00      0          0          0          0          0          0          0          0          0          0
  domcol           :       0.00       0.00      1          0          0          0          0          0          0          0          0          0
  dualagg          :       0.00       0.00      0          0          0          0          0          0          0          0          0          0
  dualcomp         :       0.00       0.00      1          0          0          0          0          0          0          0          0          0
  dualinfer        :       0.00       0.00      0          0          0          0          0          0          0          0          0          0
  dualsparsify     :       0.00       0.00      1          0          0          0          0          0          0          0          0          0
  gateextraction   :       0.00       0.00      0          0          0          0          0          0          0          0          0          0
  implics          :       0.00       0.00      1          0          0          0          0          0          0          0          0          0
  inttobinary      :       0.00       0.00      0          0          0          0          0          0          0          0          0          0
  qpkktref         :       0.00       0.00      0          0          0          0          0          0          0          0          0          0
  redvub           :       0.00       0.00      0          0          0          0          0          0          0          0          0          0
  sparsify         :       0.00       0.00      1          0          0          0          0          0          0          0          0          0
  stuffing         :       0.00       0.00      0          0          0          0          0          0          0          0          0          0
  trivial          :       0.00       0.00      2         36          0          0          0          0          0          0          0          0
  tworowbnd        :       0.00       0.00      0          0          0          0          0          0          0          0          0          0
  dualfix          :       0.00       0.00      2         36          0          0          0          0          0          0          0          0
  genvbounds       :       0.00       0.00      0          0          0          0          0          0          0          0          0          0
  probing          :       0.01       0.00      1          0          0          0          0          0          0          0          0          0
  pseudoobj        :       0.00       0.00      0          0          0          0          0          0          0          0          0          0
  symmetry         :       0.00       0.00      1          0          0          0          0          0          0          0          0          0
  vbounds          :       0.00       0.00      0          0          0          0          0          0          0          0          0          0
  linear           :       0.00       0.00      3          0          0          0          0          0          0          0          0          0
  nonlinear        :       0.04       0.01      4          0          0          0         81          0          0          0          0          0
  benders          :       0.00       0.00      0          0          0          0          0          0          0          0          0          0
  components       :       0.01       0.00      1          0          0          0          0          0          0          0          0          0
  root node        :          -          -      -          0          -          -       2313          -          -          -          -          -
Constraints        :     Number  MaxNumber  #Separate #Propagate    #EnfoLP    #EnfoRelax  #EnfoPS    #Check   #ResProp    Cutoffs    DomReds       Cuts    Applied      Conss   Children
  benderslp        :          0          0          0          0      17336          0          0      12407          0          0          0          0          0          0          0
  integral         :          0          0          0          0      17336          0          0      12407          0          0       5088          0          0          0      34172
  linear           :       1037+      1044         76     455649          0          0          0      12401          8         35      11845         13          0          0          0
  nonlinear        :        487        487     165339     455614          0          0          0      11627          0        110     994335    5975148    5931571          0          0
  benders          :          0          0          0          0          0          0          0          7          0          0          0          0          0          0          0
  countsols        :          0          0          0          0          0          0          0          7          0          0          0          0          0          0          0
  components       :          0          0          0          0          0          0          0          0          0          0          0          0          0          0          0
Constraint Timings :  TotalTime  SetupTime   Separate  Propagate     EnfoLP     EnfoPS     EnfoRelax   Check    ResProp    SB-Prop
  benderslp        :       0.02       0.00       0.00       0.00       0.01       0.00       0.00       0.01       0.00       0.00
  integral         :      19.77       0.00       0.00       0.00      19.76       0.00       0.00       0.01       0.00       0.00
  linear           :       5.44       0.00       0.00       5.36       0.00       0.00       0.00       0.08       0.00       0.00
  nonlinear        :     166.91       0.01     117.93      45.41       0.00       0.00       0.00       3.36       0.00       0.20
  benders          :       0.00       0.00       0.00       0.00       0.00       0.00       0.00       0.00       0.00       0.00
  countsols        :       0.00       0.00       0.00       0.00       0.00       0.00       0.00       0.00       0.00       0.00
  components       :       0.09       0.00       0.00       0.09       0.00       0.00       0.00       0.00       0.00       0.00
Propagators        : #Propagate   #ResProp    Cutoffs    DomReds
  dualfix          :          2          0          0          0
  genvbounds       :          0          0          0          0
  nlobbt           :          0          0          0          0
  obbt             :          0          0          0          0
  probing          :          0          0          0          0
  pseudoobj        :      52160          0          0         16
  redcost          :     200016          0          0          0
  rootredcost      :          6          0          0       1810
  symmetry         :          0          0          0          0
  vbounds          :     114250          0          0          0
Propagator Timings :  TotalTime  SetupTime   Presolve  Propagate    ResProp    SB-Prop
  dualfix          :       0.00       0.00       0.00       0.00       0.00       0.00
  genvbounds       :       0.23       0.00       0.00       0.23       0.00       0.00
  nlobbt           :       0.00       0.00       0.00       0.00       0.00       0.00
  obbt             :       0.00       0.00       0.00       0.00       0.00       0.00
  probing          :       0.01       0.00       0.01       0.00       0.00       0.00
  pseudoobj        :       0.35       0.00       0.00       0.35       0.00       0.00
  redcost          :       1.73       0.00       0.00       1.73       0.00       0.00
  rootredcost      :       0.14       0.00       0.00       0.14       0.00       0.00
  symmetry         :       0.19       0.00       0.00       0.19       0.00       0.00
  vbounds          :       0.30       0.00       0.00       0.30       0.00       0.00
Conflict Analysis  :       Time      Calls    Success    DomReds  Conflicts   Literals    Reconvs ReconvLits   Dualrays   Nonzeros   LP Iters   (pool size: [--,--])
  propagation      :       0.00          7          3          -          3       77.3          0        0.0          -          -          -
  infeasible LP    :       0.00          3          3          -          0        0.0          0        0.0        398      165.6          0
  bound exceed. LP :       3.57       1783        395          -          0        0.0          0        0.0          0        0.0      24051
  strong branching :       0.00          0          0          -          0        0.0          0        0.0          -          -          0
  pseudo solution  :       0.00          0          0          -          0        0.0          0        0.0          -          -          -
  applied globally :       0.00          -          -          0          0        0.0          -          -        398          -          -
  applied locally  :          -          -          -          0          0        0.0          -          -          0          -          -
Separators         :   ExecTime  SetupTime      Calls  RootCalls    Cutoffs    DomReds  FoundCuts ViaPoolAdd  DirectAdd    Applied ViaPoolApp  DirectApp      Conss
  cut pool         :       0.00          -       2560          0          -          -         34        194          -          -          -          -          -    (maximal pool size:          7)
  aggregation      :       9.27       0.00       7209         76          0          0          2         56          0          3          3          0          0
  > cmir           :          -          -          -          -          -          -          -         56          0          3          3          0          -
  > flowcover      :          -          -          -          -          -          -          -          0          0          0          0          0          -
  > knapsackcover  :          -          -          -          -          -          -          -          0          0          0          0          0          -
  cgmip            :       0.00       0.00          0          0          0          0          0          0          0          0          0          0          0
  clique           :       0.00       0.00          1          1          0          0          0          0          0          0          0          0          0
  closecuts        :       0.00       0.00          0          0          0          0          0          0          0          0          0          0          0
  convexproj       :       0.00       0.00          0          0          0          0          0          0          0          0          0          0          0
  disjunctive      :       0.00       0.00          0          0          0          0          0          0          0          0          0          0          0
  eccuts           :       0.00       0.00          0          0          0          0          0          0          0          0          0          0          0
  gauge            :       0.00       0.00          0          0          0          0          0          0          0          0          0          0          0
  gomory           :       8.39       0.00       3605         10          0          0         32        138          0         58         58          0          0
  > gomorymi       :          -          -          -          -          -          -          -        138          0         58         58          0          -
  > strongcg       :          -          -          -          -          -          -          -          0          0          0          0          0          -
  impliedbounds    :       0.38       0.00       7209         76          0          0          0          0          0          0          0          0          0
  interminor       :       0.00       0.00          0          0          0          0          0          0          0          0          0          0          0
  intobj           :       0.00       0.00          0          0          0          0          0          0          0          0          0          0          0
  mcf              :       0.00       0.00          3          3          0          0          0          0          0          0          0          0          0
  minor            :       0.01       0.00          0          0          0          0          0          0          0          0          0          0          0
  mixing           :       0.13       0.00       7209         76          0          0          0          0          0          0          0          0          0
  oddcycle         :       0.00       0.00          0          0          0          0          0          0          0          0          0          0          0
  rapidlearning    :       0.00       0.00          0          0          0          0          0          0          0          0          0          0          0
  rlt              :       0.00       0.00         10         10          0          0          0          0          0          0          0          0          0
  zerohalf         :       1.00       0.00       3615         20          0          0          0          0          0          0          0          0          0
Cutselectors       :   ExecTime  SetupTime      Calls  RootCalls   Selected     Forced   Filtered  RootSelec   RootForc   RootFilt 
  hybrid           :       3.37       0.00     165339         76    5931632          0      43723       4299          0        255
Pricers            :   ExecTime  SetupTime      Calls       Vars
  problem variables:       0.00          -          0          0
Branching Rules    :   ExecTime  SetupTime   BranchLP  BranchExt   BranchPS    Cutoffs    DomReds       Cuts      Conss   Children
  allfullstrong    :       0.00       0.00          0          0          0          0          0          0          0          0
  cloud            :       0.00       0.00          0          0          0          0          0          0          0          0
  distribution     :       0.00       0.00          0          0          0          0          0          0          0          0
  fullstrong       :       0.00       0.00          0          0          0          0          0          0          0          0
  inference        :       0.00       0.00          0          0          0          0          0          0          0          0
  leastinf         :       0.00       0.00          0          0          0          0          0          0          0          0
  lookahead        :       0.00       0.00          0          0          0          0          0          0          0          0
  mostinf          :       0.00       0.00          0          0          0          0          0          0          0          0
  multaggr         :       0.00       0.00          0          0          0          0          0          0          0          0
  nodereopt        :       0.00       0.00          0          0          0          0          0          0          0          0
  pscost           :       0.00       0.00          0          0          0          0          0          0          0          0
  random           :       0.00       0.00          0          0          0          0          0          0          0          0
  relpscost        :      19.71       0.00      17336          0          0          0       5088          0          0      34172
  vanillafullstrong:       0.00       0.00          0          0          0          0          0          0          0          0
Primal Heuristics  :   ExecTime  SetupTime      Calls      Found       Best
  LP solutions     :       0.00          -          -          0          0
  relax solutions  :       0.00          -          -          0          0
  pseudo solutions :       0.00          -          -          0          0
  strong branching :       0.02          -          -          0          0
  actconsdiving    :       0.00       0.00          0          0          0
  adaptivediving   :       3.41       0.00         64          0          0
  alns             :       2.63       0.00          8          1          1
  bound            :       0.00       0.00          0          0          0
  clique           :       0.00       0.00          0          0          0
  coefdiving       :       0.00       0.00          0          0          0
  completesol      :       0.00       0.00          0          0          0
  conflictdiving   :      35.76       0.00        619          0          0
  crossover        :       0.00       0.00          0          0          0
  dins             :       0.00       0.00          0          0          0
  distributiondivin:     522.01       0.00        875          0          0
  dps              :       0.00       0.00          0          0          0
  dualval          :       0.00       0.00          0          0          0
  farkasdiving     :       0.00       0.00          0          0          0
  feaspump         :       4.67       0.00         23          0          0
  fixandinfer      :       0.00       0.00          0          0          0
  fracdiving       :      52.26       0.00        875          0          0
  gins             :       0.05       0.00          0          0          0
  guideddiving     :      50.23       0.00        879          0          0
  indicator        :       0.10       0.00          0          0          0
  indicatordiving  :       0.00       0.00          0          0          0
  intdiving        :       0.00       0.00          0          0          0
  intshifting      :       0.66       0.00         25          0          0
  linesearchdiving :      40.28       0.00        879          0          0
  localbranching   :       0.00       0.00          0          0          0
  locks            :       0.02       0.00          1          0          0
  lpface           :       0.01       0.00          0          0          0
  mpec             :       4.07       0.00          1          0          0
  multistart       :       0.00       0.00          0          0          0
  mutation         :       0.00       0.00          0          0          0
  nlpdiving        :       3.90       0.00          1          0          0
  objpscostdiving  :       6.25       0.00          8          0          0
  octane           :       0.00       0.00          0          0          0
  ofins            :       0.00       0.00          0          0          0
  oneopt           :       0.02       0.00          6          0          0
  padm             :       0.00       0.00          0          0          0
  proximity        :       0.00       0.00          0          0          0
  pscostdiving     :      70.35       0.00        864          0          0
  randrounding     :       0.60       0.00       1042          0          0
  rens             :       0.00       0.00          0          0          0
  reoptsols        :       0.00       0.00          0          0          0
  repair           :       0.00       0.00          0          0          0
  rins             :       0.00       0.00          0          0          0
  rootsoldiving    :       2.43       0.00         19          0          0
  rounding         :       0.82       0.00       5870          0          0
  shiftandpropagate:       0.01       0.00          1          0          0
  shifting         :       1.20       0.00       1172          0          0
  simplerounding   :       0.16       0.00          0          0          0
  subnlp           :       5.12       0.00         27          5          5
  trivial          :       0.00       0.00          2          0          0
  trivialnegation  :       0.00       0.00          0          0          0
  trustregion      :       0.00       0.00          0          0          0
  trysol           :       0.11       0.00          0          0          0
  twoopt           :       0.00       0.00          0          0          0
  undercover       :       0.16       0.00          1          0          0
  vbounds          :       0.00       0.00          0          0          0
  veclendiving     :      33.38       0.00        879          0          0
  zeroobj          :       0.00       0.00          0          0          0
  zirounding       :       0.11       0.00       1000          0          0
  other solutions  :          -          -          -          0          -
Diving (single)    :      Calls      Nodes   LP Iters Backtracks  Conflicts   MinDepth   MaxDepth   AvgDepth  RoundSols  NLeafSols  MinSolDpt  MaxSolDpt  AvgSolDpt
  actconsdiving    :          0          -          -          -          -          -          -          -          -          -          -          -          -
  coefdiving       :          0          -          -          -          -          -          -          -          -          -          -          -          -
  conflictdiving   :        619      12809     431893        367        111         14         45       33.7          0          -          -          -          -
  distributiondivin:        875      14899     640801        434        159         14         45       32.3          0          -          -          -          -
  farkasdiving     :          0          -          -          -          -          -          -          -          -          -          -          -          -
  fracdiving       :        875      24734     634190         51         14         38         45       43.8          0          -          -          -          -
  guideddiving     :        879      22959     631097         97         26         30         45       42.7          0          -          -          -          -
  indicatordiving  :          0          -          -          -          -          -          -          -          -          -          -          -          -
  linesearchdiving :        879      18263     518055         74         20         27         45       37.0          0          -          -          -          -
  pscostdiving     :        864      25328     855485         17          3         37         45       44.5          0          -          -          -          -
  veclendiving     :        879       5362     409259        467         67         13         41       21.6          0          -          -          -          -
Diving (adaptive)  :      Calls      Nodes   LP Iters Backtracks  Conflicts   MinDepth   MaxDepth   AvgDepth  RoundSols  NLeafSols  MinSolDpt  MaxSolDpt  AvgSolDpt
  actconsdiving    :         21        133      11876         10          0         15         24       20.9          0          -          -          -          -
  coefdiving       :         13         74       5950          4          1         18         26       20.3          0          -          -          -          -
  conflictdiving   :          0          -          -          -          -          -          -          -          -          -          -          -          -
  distributiondivin:          0          -          -          -          -          -          -          -          -          -          -          -          -
  farkasdiving     :          0          -          -          -          -          -          -          -          -          -          -          -          -
  fracdiving       :          4        120       2988          0          0         44         45       44.5          0          -          -          -          -
  guideddiving     :          8        237       6772          0          0         39         45       42.6          0          -          -          -          -
  indicatordiving  :          0          -          -          -          -          -          -          -          -          -          -          -          -
  linesearchdiving :          3         48       1234          0          0         27         33       30.7          0          -          -          -          -
  pscostdiving     :          8        236       8476          0          0         44         45       44.6          0          -          -          -          -
  veclendiving     :          7         50       2841          0          0         15         21       18.6          0          -          -          -          -
Neighborhoods      :      Calls  SetupTime  SolveTime SolveNodes       Sols       Best       Exp3  EpsGreedy        UCB TgtFixRate  Opt  Inf Node Stal  Sol  Usr Othr Actv
  rens             :          1       0.01       0.00          0          0          0    0.00000   -1.00000    0.55929      0.700    0    1    0    0    0    0    0    1
  rins             :          1       0.01       0.35          9          1          1    0.00000   -1.00000    0.96724      0.900    0    0    0    0    0    0    1    1
  mutation         :          1       0.00       0.36          7          0          0    0.00000   -1.00000    0.55307      0.700    0    1    0    0    0    0    0    1
  localbranching   :          1       0.01       0.51          9          0          0    0.00000   -1.00000    0.54929      0.700    0    1    0    0    0    0    0    1
  crossover        :          1       0.01       0.44          3          0          0    0.00000   -1.00000    0.55796      0.700    0    1    0    0    0    0    0    1
  proximity        :          1       0.01       0.38          1          0          0    0.00000   -1.00000    0.55818      0.700    0    1    0    0    0    0    0    1
  zeroobjective    :          1       0.00       0.00          0          0          0    0.00000   -1.00000    0.05929      0.900    0    0    0    0    0    0    1    1
  dins             :          1       0.01       0.50          1          0          0    0.00000   -1.00000    0.55818      0.700    0    1    0    0    0    0    0    1
  trustregion      :          0       0.00       0.00          0          0          0    0.00000   -1.00000    1.00000      0.900    0    0    0    0    0    0    0    0
Expressions        :   #IntEval  IntEvalTi   #RevProp  RevPropTi    DomReds    Cutoffs  #Estimate  EstimTime  Branching  #Simplify SimplifyTi Simplified
  pow              :    8956378       1.94    3195016       0.77    5543015          0        824       0.00          0       1071       0.00          0
  prod             :    7584929       2.05      46615       0.10        257          0          0       0.00          0        812       0.00        405
  sum              :    8594466       2.05    5164440       1.33     462310         28         82       0.00          0       1055       0.00         82
  var              :   21379086       4.60          0       0.00          0          0          0       0.00          0       2854       0.01          0
  varidx           :          0       0.00          0       0.00          0          0          0       0.00          0          0       0.00          0
Nonlinear Conshdlr :   WeakSepa  TightenLP DespTghtLP DespBranch DespCutoff    ForceLP  CanonTime
  enforce          :          0          0          0          0          0          0
  presolve         :                                                                         0.03
Nlhdlrs            :    Detects  DetectAll DetectTime   #IntEval  IntEvalTi   #RevProp  RevPropTi    DomReds    Cutoffs   #Enforce   EnfoTime       Cuts  Branching
  soc              :        405        405       0.00          0       0.00          0       0.00          0          0   22160707      35.33    5809066          0
  convex           :          1          1       0.00          0       0.00          0       0.00          0          0     165340       0.89     165339          0
  concave          :          0          0       0.00          0       0.00          0       0.00          0          0          0       0.00          0          0
  quotient         :          0          0       0.00          0       0.00          0       0.00          0          0          0       0.00          0          0
  quadratic        :          0          0       0.00          0       0.00          0       0.00          0          0          0       0.00          0          0
  default          :       2415      12075       0.00   25133751      14.54    8409152      14.36    6005582         28        906       0.00        743          0
  bilinear         :          0          0       0.00          0       0.00          0       0.00          0          0          0       0.00          0          0
  perspective      :          0          0       0.00          0       0.00          0       0.00          0          0          0       0.00          0          0
LP                 :       Time      Calls Iterations  Iter/call   Iter/sec  Time-0-It Calls-0-It    ItLimit
  primal LP        :     345.73      20672          0       0.00       0.00     345.67      20672
  dual LP          :    2100.38     182705   24761991     135.73   11789.29       0.06        263
  lex dual LP      :       0.00          0          0       0.00          -
  barrier LP       :       0.00          0          0       0.00          -       0.00          0
  resolve instable :       0.00          0          0       0.00          -
  diving/probing LP:     269.20      27043    4248571     157.10   15782.21
  strong branching :      15.59        660     163517     247.75   10488.58          -          -        134
    (at root node) :          -         25        470      18.80          -
  conflict analysis:       1.99       2560      24051       9.39   12085.93
NLP relaxation     :
  solve time       :       3.89 (12 calls)
  convexity        :  nonconvex (65 linear rows, 82 convex ineq., 405 nonconvex ineq., 0 nonlinear eq. or two-sided ineq.)
NLP Solvers        :  #Problems  ProblemTi    #Solves  SolveTime      #Iter  Time/Iter      #Okay #TimeLimit #IterLimit #LObjLimit #Interrupt  #NumError #EvalError  #OutOfMem #LicenseEr #OtherTerm   #GlobOpt    #LocOpt  #Feasible #LocInfeas #GlobInfea #Unbounded   #Unknown
  ipopt            :         29       5.63         41      12.13       1686       0.01         37          0          4          0          0          0          0          0          0          0          0         15          2         21          0          0          3
B&B Tree           :
  number of runs   :          1
  nodes            :      17087 (17086 internal, 1 leaves)
  feasible leaves  :          0
  infeas. leaves   :          0
  objective leaves :          0
  nodes (total)    :      17087 (17086 internal, 1 leaves)
  nodes left       :      17087
  max depth        :         22
  max depth (total):         22
  backtracks       :       6080 (35.6%)
  early backtracks :          0 (0.0%)
  nodes exc. ref.  :          0 (0.0%)
  delayed cutoffs  :          0
  repropagations   :         10 (0 domain reductions, 0 cutoffs)
  avg switch length:       9.13
  switching time   :     290.90
Estim. Tree Size   :         -1
Estimation Tree    : 34173 nodes (17086 visited, 17086 internal, 0 leaves, 17087 open), weight: 0.0000 completed 0.0511
Estimations        :      estim      value      trend resolution     smooth
  wbe              :         -1          -          -          -          -
  tree-profile     :         -1          -          -          -          -
  gap              :         -1    0.83960                     1           
  tree-weight      :         -1    0.00000                     1           
  leaf-frequency   :         -1   -0.00003                     1           
  ssg              :         -1    0.91929                     1           
  open-nodes       :         -1 17087.00000                     1           
Root Node          :
  First LP value   : -2.25703814995217e+00
  First LP Iters   :       1601 (40025.00 Iter/sec)
  First LP Time    :       0.04
  Final Dual Bound : -1.89229376135363e+00
  Final Root Iters :      11728
  Root LP Estimate : -1.66179303934250e+00
Solution           :
  Solutions found  :          6 (6 improvements)
  First Solution   : -1.30530298704793e+00   (in run 1, after 1 nodes, 0.55 seconds, depth 0, found by <feaspump>)
  Gap First Sol.   :      72.91 %
  Gap Last Sol.    :      20.78 %
  Primal Bound     : -1.50663266933236e+00   (in run 1, after 5040 nodes, 1102.98 seconds, depth 10, found by <pscostdiving>)
  Dual Bound       : -1.79445628453884e+00
  Gap              :      19.10 %
Integrals          :      Total       Avg%
  primal-dual      :   65762.42      18.27
  primal-ref       :          -          - (not evaluated)
  dual-ref         :          -          - (not evaluated)
